364651
[0, 1, 4, 69, 68, 67, 71, 55, 66, 54, 53, 56, 57, 58, 65, 64, 60, 61, 63, 62, 59, 52, 50, 49, 39, 38, 37, 36, 35, 34, 33, 32, 31, 23, 24, 30, 29, 25, 28, 26, 27, 331, 332, 333, 22, 21, 16, 15, 14, 12, 13, 9, 8, 6, 7, 10, 11, 20, 17, 18, 19, 40, 48, 41, 42, 47, 46, 45, 43, 44, 311, 310, 316, 317, 319, 321, 322, 320, 293, 292, 294, 295, 288, 289, 290, 291, 318, 315, 312, 314, 313, 330, 329, 328, 327, 326, 324, 325, 323, 309, 308, 307, 306, 305, 304, 990, 296, 297, 299, 298, 283, 284, 285, 286, 287, 282, 300, 301, 302, 303, 112, 113, 114, 115, 117, 105, 104, 103, 123, 124, 125, 126, 127, 128, 129, 131, 136, 137, 130, 122, 121, 119, 120, 256, 257, 258, 255, 254, 253, 252, 248, 249, 251, 994, 149, 150, 152, 153, 154, 164, 165, 166, 167, 168, 155, 163, 162, 161, 157, 156, 158, 184, 183, 182, 181, 995, 180, 179, 178, 173, 174, 175, 177, 176, 172, 159, 160, 171, 170, 169, 151, 148, 143, 147, 145, 144, 146, 142, 141, 140, 139, 138, 250, 246, 244, 245, 261, 265, 267, 268, 270, 271, 272, 468, 469, 470, 471, 476, 477, 997, 579, 577, 576, 580, 581, 582, 583, 584, 448, 447, 449, 450, 451, 452, 453, 454, 455, 456, 429, 430, 996, 434, 435, 436, 431, 432, 433, 445, 443, 442, 441, 440, 631, 630, 629, 628, 610, 611, 612, 613, 614, 615, 626, 627, 625, 624, 991, 632, 633, 634, 635, 636, 637, 638, 644, 645, 647, 649, 650, 648, 621, 620, 622, 623, 616, 617, 618, 619, 646, 643, 640, 642, 641, 658, 657, 656, 655, 654, 652, 653, 651, 639, 372, 371, 370, 375, 374, 373, 369, 368, 376, 377, 378, 380, 384, 385, 386, 393, 392, 388, 389, 391, 390, 387, 382, 381, 383, 399, 395, 396, 397, 400, 398, 394, 379, 367, 366, 365, 364, 363, 362, 361, 360, 359, 351, 352, 358, 357, 353, 356, 354, 355, 659, 660, 661, 350, 349, 344, 343, 342, 340, 341, 337, 336, 334, 335, 338, 339, 348, 345, 346, 347, 609, 608, 607, 604, 605, 606, 438, 437, 439, 444, 446, 428, 427, 460, 461, 423, 422, 424, 425, 418, 419, 420, 404, 421, 417, 416, 415, 405, 409, 407, 401, 402, 403, 408, 410, 411, 406, 413, 412, 414, 426, 462, 463, 457, 459, 464, 465, 458, 585, 586, 574, 572, 573, 589, 593, 595, 596, 598, 599, 600, 796, 797, 798, 799, 804, 805, 1000, 907, 905, 904, 908, 909, 910, 911, 912, 776, 775, 777, 778, 779, 780, 781, 782, 783, 784, 757, 758, 999, 762, 763, 764, 759, 760, 761, 773, 771, 770, 769, 768, 959, 958, 957, 956, 938, 939, 940, 941, 942, 943, 954, 955, 953, 952, 992, 960, 961, 962, 963, 964, 965, 966, 972, 973, 975, 977, 978, 976, 949, 948, 950, 951, 944, 945, 946, 947, 974, 971, 968, 970, 969, 986, 985, 984, 983, 982, 980, 981, 979, 967, 700, 699, 698, 703, 702, 701, 697, 696, 704, 705, 706, 708, 712, 713, 714, 721, 720, 716, 717, 719, 718, 715, 710, 709, 711, 727, 723, 724, 725, 728, 726, 722, 707, 695, 694, 693, 692, 691, 690, 689, 688, 687, 679, 680, 686, 685, 681, 684, 682, 683, 987, 988, 989, 678, 677, 672, 671, 670, 668, 669, 665, 664, 662, 663, 666, 667, 676, 673, 674, 675, 937, 936, 935, 932, 933, 934, 766, 765, 767, 772, 774, 756, 755, 788, 789, 751, 750, 752, 753, 746, 747, 748, 732, 749, 745, 744, 743, 733, 737, 735, 729, 730, 731, 736, 738, 739, 734, 741, 740, 742, 754, 790, 791, 785, 787, 792, 793, 786, 913, 914, 902, 900, 901, 917, 921, 923, 924, 926, 927, 928, 929, 930, 931, 922, 920, 884, 883, 882, 881, 880, 879, 878, 877, 875, 876, 889, 888, 890, 891, 892, 845, 846, 847, 848, 849, 852, 853, 856, 854, 855, 861, 859, 858, 860, 862, 863, 864, 865, 850, 851, 857, 842, 844, 894, 893, 895, 896, 841, 897, 843, 870, 871, 868, 867, 866, 872, 869, 874, 873, 919, 886, 887, 885, 918, 916, 915, 925, 899, 898, 903, 906, 806, 808, 809, 810, 820, 821, 822, 823, 824, 811, 819, 818, 817, 813, 812, 814, 840, 839, 838, 837, 1001, 836, 835, 834, 829, 830, 831, 833, 832, 828, 815, 816, 827, 826, 825, 807, 803, 801, 800, 802, 795, 794, 601, 602, 603, 594, 592, 556, 555, 554, 553, 552, 551, 550, 549, 547, 548, 561, 560, 562, 563, 564, 517, 518, 519, 520, 521, 524, 525, 528, 526, 527, 533, 531, 530, 532, 534, 535, 536, 537, 522, 523, 529, 514, 516, 566, 565, 567, 568, 513, 569, 515, 542, 543, 540, 539, 538, 544, 541, 546, 545, 591, 558, 559, 557, 590, 588, 587, 597, 571, 570, 575, 578, 478, 480, 481, 482, 492, 493, 494, 495, 496, 483, 491, 490, 489, 485, 484, 486, 512, 511, 510, 509, 998, 508, 507, 506, 501, 502, 503, 505, 504, 500, 487, 488, 499, 498, 497, 479, 475, 473, 472, 474, 467, 466, 273, 274, 275, 266, 264, 228, 227, 226, 225, 224, 223, 222, 221, 219, 220, 233, 232, 234, 235, 236, 189, 190, 191, 192, 193, 196, 197, 200, 198, 199, 205, 203, 202, 204, 206, 207, 208, 209, 194, 195, 201, 186, 188, 238, 237, 239, 240, 185, 241, 187, 214, 215, 212, 211, 210, 216, 213, 218, 217, 263, 230, 231, 229, 262, 260, 259, 269, 243, 242, 247, 102, 993, 106, 107, 108, 101, 100, 99, 132, 133, 95, 94, 96, 97, 90, 91, 92, 76, 93, 89, 88, 87, 77, 81, 79, 73, 74, 75, 80, 82, 83, 78, 85, 84, 86, 98, 134, 135, 116, 118, 110, 109, 111, 281, 280, 279, 276, 277, 278, 51, 72, 70, 2, 3, 5]
